     Program PWSCF v.6.7MaX starts on  9Sep2025 at  5: 5: 7

     R & G space division:  proc/nbgrp/npool/nimage =      16
     Reading input from espresso.opt.in
Warning: card &CELL ignored
Warning: card / ignored

     Current dimensions of program PWSCF are:
     Max number of different atomic species (ntypx) = 10
     Max number of k-points (npk) =  40000
     Max angular momentum in pseudopotentials (lmaxx) =  3
     file O.pbe-rrkjus.UPF: wavefunction(s)  2S renormalized
     file N.pbe-rrkjus.UPF: wavefunction(s)  2S renormalized
     file H.pbe-rrkjus.UPF: wavefunction(s)  1S renormalized

     gamma-point specific algorithms are used

     bravais-lattice index     =           12
     lattice parameter (alat)  =      24.8191  a.u.
     unit-cell volume          =   27422.4424 (a.u.)^3
     number of atoms/cell      =          134
     number of atomic types    =            4
     number of electrons       =      1107.00
     number of Kohn-Sham states=          665
     kinetic-energy cutoff     =      25.0000  Ry
     charge density cutoff     =     225.0000  Ry
     scf convergence threshold =      1.0E-04
     mixing beta               =       0.1000
     number of iterations used =            8  plain     mixing
     energy convergence thresh.=      1.0E-04
     force convergence thresh. =      1.0E-02
     Exchange-correlation=  SLA  PW   PBE  PBE
                           (   1   4   3   4   0   0   0)
     nstep                     =          100

     celldm(1)=  24.819131  celldm(2)=   1.039595  celldm(3)=   2.189034
     celldm(4)=  -0.615435  celldm(5)=   0.000000  celldm(6)=   0.000000

     crystal axes: (cart. coord. in units of alat)
               a(1) = (   1.000000   0.000000   0.000000 )
               a(2) = (  -0.639802   0.819396   0.000000 )
               a(3) = (   0.000000   0.000000   2.189034 )

     reciprocal axes: (cart. coord. in units 2 pi/alat)
               b(1) = (  1.000000  0.780822 -0.000000 )
               b(2) = (  0.000000  1.220411  0.000000 )
               b(3) = (  0.000000 -0.000000  0.456822 )

     PseudoPot. # 1 for O  read from file:
     ./O.pbe-rrkjus.UPF
     MD5 check sum: 390ba29e75625707450f3bd3f0eb6be9
     Pseudo is Ultrasoft, Zval =  6.0
     Generated by new atomic code, or converted to UPF format
     Using radial grid of 1269 points,  4 beta functions with:
                l(1) =   0
                l(2) =   0
                l(3) =   1
                l(4) =   1
     Q(r) pseudized with 0 coefficients

     PseudoPot. # 2 for Cu read from file:
     ./Cu.pbe-n-van_ak.UPF
     MD5 check sum: f96b10b0f61dc418faf9c97f6ccca034
     Pseudo is Ultrasoft + core correction, Zval = 11.0
     Generated by new atomic code, or converted to UPF format
     Using radial grid of  867 points,  6 beta functions with:
                l(1) =   0
                l(2) =   0
                l(3) =   1
                l(4) =   1
                l(5) =   2
                l(6) =   2
     Q(r) pseudized with  8 coefficients,  rinner =    1.400   1.400   1.400
                                                       1.400   1.400

     PseudoPot. # 3 for N  read from file:
     ./N.pbe-rrkjus.UPF
     MD5 check sum: 0c3fbe5807a93f9ba59d5a7019aa238b
     Pseudo is Ultrasoft, Zval =  5.0
     Generated by new atomic code, or converted to UPF format
     Using radial grid of 1257 points,  4 beta functions with:
                l(1) =   0
                l(2) =   0
                l(3) =   1
                l(4) =   1
     Q(r) pseudized with 0 coefficients

     PseudoPot. # 4 for H  read from file:
     ./H.pbe-rrkjus.UPF
     MD5 check sum: 7cc9d459525c9a0585f487a71c3c9563
     Pseudo is Ultrasoft, Zval =  1.0
     Generated by new atomic code, or converted to UPF format
     Using radial grid of 1061 points,  2 beta functions with:
                l(1) =   0
                l(2) =   0
     Q(r) pseudized with 0 coefficients

     atomic species   valence    mass     pseudopotential
        O              6.00    15.99940     O ( 1.00)
        Cu            11.00    63.54600     Cu( 1.00)
        N              5.00    14.00674     N ( 1.00)
        H              1.00     1.00794     H ( 1.00)

     Starting magnetic structure
     atomic species   magnetization
        O            0.000
        Cu           0.200
        N            0.000
        H            0.000

     No symmetry found

   Cartesian axes

     site n.     atom                  positions (alat units)
         1           O   tau(   1) = (   0.6430778   0.2639823   1.4214811  )
         2           O   tau(   2) = (  -0.2669102   0.4686446   1.4213066  )
         3           Cu  tau(   3) = (  -0.0667249   0.1218681   1.3804931  )
         4           Cu  tau(   4) = (   0.1765424   0.1258005   1.3854772  )
         5           Cu  tau(   5) = (  -0.2333619   0.3306361   1.3853592  )
         6           Cu  tau(   6) = (   0.0234792   0.3265847   1.3805054  )
         7           O   tau(   7) = (   0.8068059   0.1891577   1.3446814  )
         8           O   tau(   8) = (  -0.1029025   0.3939772   1.3447857  )
         9           O   tau(   9) = (  -0.0479939   0.1140161   1.2247094  )
        10           O   tau(  10) = (   0.0422645   0.3188590   1.2247269  )
        11           Cu  tau(  11) = (   0.8263002   0.1806362   1.1933961  )
        12           Cu  tau(  12) = (   0.0757524   0.1811765   1.1843059  )
        13           Cu  tau(  13) = (   0.6658749   0.3860383   1.1843918  )
        14           Cu  tau(  14) = (  -0.0835217   0.3854680   1.1934564  )
        15           O   tau(  15) = (   0.7026051   0.2469256   1.1458175  )
        16           O   tau(  16) = (  -0.2072297   0.4517355   1.1458653  )
        17           O   tau(  17) = (   0.8488597   0.1700563   1.0442088  )
        18           O   tau(  18) = (  -0.0610908   0.3749054   1.0442090  )
        19           Cu  tau(  19) = (   0.7234609   0.2370091   0.9986641  )
        20           Cu  tau(  20) = (  -0.0265416   0.2370067   0.9986615  )
        21           Cu  tau(  21) = (   0.5635099   0.4418637   0.9986599  )
        22           Cu  tau(  22) = (  -0.1864927   0.4418614   0.9986572  )
        23           O   tau(  23) = (   0.0080097   0.0991163   0.9531124  )
        24           O   tau(  24) = (   0.0980590   0.3039650   0.9531122  )
        25           O   tau(  25) = (   0.7477078   0.2256112   0.8524958  )
        26           O   tau(  26) = (  -0.1622429   0.4304600   0.8524956  )
        27           Cu  tau(  27) = (   0.0322596   0.0877148   0.8069509  )
        28           Cu  tau(  28) = (   0.2822570   0.0877125   0.8069483  )
        29           Cu  tau(  29) = (  -0.1276916   0.2925694   0.8069466  )
        30           Cu  tau(  30) = (   0.1223060   0.2925671   0.8069439  )
        31           O   tau(  31) = (  -0.0931424   0.1546708   0.7613990  )
        32           O   tau(  32) = (  -0.0030929   0.3595200   0.7613992  )
        33           O   tau(  33) = (   0.3228843   0.6735559   1.4213534  )
        34           O   tau(  34) = (   0.0528221   0.0592017   1.4215222  )
        35           Cu  tau(  35) = (  -0.3865091   0.5311805   1.3803118  )
        36           Cu  tau(  36) = (  -0.1434232   0.5355436   1.3853596  )
        37           Cu  tau(  37) = (  -0.5534634   0.7403425   1.3854845  )
        38           Cu  tau(  38) = (  -0.2965475   0.7362281   1.3803407  )
        39           O   tau(  39) = (   0.4871556   0.5987298   1.3447274  )
        40           O   tau(  40) = (  -0.4230018   0.8036433   1.3446777  )
        41           O   tau(  41) = (  -0.3676854   0.5237658   1.2246458  )
        42           O   tau(  42) = (  -0.2777362   0.7285616   1.2247120  )
        43           Cu  tau(  43) = (   0.5065974   0.5902490   1.1933837  )
        44           Cu  tau(  44) = (  -0.2439879   0.5908946   1.1843546  )
        45           Cu  tau(  45) = (   0.3458372   0.7957104   1.1842772  )
        46           Cu  tau(  46) = (  -0.4034236   0.7951672   1.1933792  )
        47           O   tau(  47) = (   0.3829672   0.6565776   1.1458666  )
        48           O   tau(  48) = (   0.1126707   0.0420477   1.1458339  )
        49           O   tau(  49) = (   0.5289585   0.5797542   1.0442088  )
        50           O   tau(  50) = (  -0.3809919   0.7846034   1.0442090  )
        51           Cu  tau(  51) = (   0.4035597   0.6467071   0.9986641  )
        52           Cu  tau(  52) = (  -0.3464428   0.6467047   0.9986615  )
        53           Cu  tau(  53) = (   0.8834110   0.0321657   0.9986599  )
        54           Cu  tau(  54) = (   0.1334086   0.0321634   0.9986572  )
        55           O   tau(  55) = (  -0.3118915   0.5088142   0.9531124  )
        56           O   tau(  56) = (  -0.2218422   0.7136630   0.9531122  )
        57           O   tau(  57) = (   0.4278066   0.6353092   0.8524958  )
        58           O   tau(  58) = (   0.1576582   0.0207620   0.8524956  )
        59           Cu  tau(  59) = (  -0.2876417   0.4974128   0.8069509  )
        60           Cu  tau(  60) = (  -0.0376442   0.4974105   0.8069483  )
[...]
       120           O   tau( 120) = (   0.2781578   0.7136630   0.9531122  )
       121           O   tau( 121) = (  -0.0721933   0.6353092   0.8524958  )
       122           O   tau( 122) = (   0.6576583   0.0207620   0.8524956  )
       123           Cu  tau( 123) = (   0.2123584   0.4974128   0.8069509  )
       124           Cu  tau( 124) = (   0.4623558   0.4974105   0.8069483  )
       125           Cu  tau( 125) = (   0.0524072   0.7022674   0.8069466  )
       126           Cu  tau( 126) = (   0.3024048   0.7022651   0.8069439  )
       127           O   tau( 127) = (   0.0869564   0.5643688   0.7613990  )
       128           O   tau( 128) = (   0.1770059   0.7692179   0.7613992  )
       129           N   tau( 129) = (   0.1198004   0.5339427   1.5200102  )
       130           H   tau( 130) = (   0.1237884   0.4222423   1.5759706  )
       131           H   tau( 131) = (   0.0364053   0.3841680   1.5830612  )
       132           N   tau( 132) = (   0.2070494   0.5230050   1.5605966  )
       133           O   tau( 133) = (   0.0945381   0.3963164   1.5297103  )
       134           H   tau( 134) = (   0.0029857   0.6206303   1.4285021  )

     number of k points=     1  Gaussian smearing, width (Ry)=  0.0100
                       cart. coord. in units 2pi/alat
        k(    1) = (   0.0000000   0.0000000   0.0000000), wk =   1.0000000

     Initial potential from superposition of free atoms

     starting charge 1105.95453, renormalised to 1107.00000

     negative rho (up, down):  1.959E-03 1.410E-03
     Starting wfcs are  847 randomized atomic wfcs

     Self-consistent Calculation

     iteration #  1     ecut=    25.00 Ry     beta= 0.10
     Davidson diagonalization with overlap
     ethr =  1.00E-02,  avg # of iterations =  2.0

     negative rho (up, down):  1.594E-03 1.570E-03

     total energy              =   -9872.99827546 Ry
     estimated scf accuracy    <     120.95882356 Ry

     total magnetization       =    69.59 Bohr mag/cell
[...]
    -3.8394  -3.8306  -3.8127  -3.7977  -3.7604  -3.7479  -3.7404  -3.7167
    -3.6927  -3.6876  -3.6733  -3.6351  -3.6045  -3.6037  -3.5334  -3.5257
    -3.4967  -3.4623  -3.4473  -3.4387  -3.4323  -3.4297  -3.4266  -3.4008
    -3.3681  -3.3241  -3.3002  -3.2837  -3.2671  -3.2639  -3.2602  -3.2526
    -3.2378  -3.2203  -3.2068  -3.1250  -3.1142  -3.0883  -3.0832  -3.0652
    -3.0495  -3.0300  -3.0162  -3.0115  -3.0051  -3.0015  -2.9969  -2.9939
    -2.9863  -2.9725  -2.9662  -2.9653  -2.9555  -2.9514  -2.9505  -2.9474
    -2.9359  -2.9324  -2.9283  -2.9242  -2.9210  -2.9098  -2.8952  -2.8857
    -2.8776  -2.8757  -2.8706  -2.8632  -2.8613  -2.8513  -2.8345  -2.8323
    -2.8251  -2.8228  -2.8216  -2.8175  -2.8158  -2.8043  -2.7994  -2.7952
    -2.7923  -2.7911  -2.7831  -2.7756  -2.7749  -2.7704  -2.7683  -2.7617
    -2.7580  -2.7474  -2.7396  -2.7362  -2.7354  -2.7243  -2.7239  -2.7202
    -2.7133  -2.7094  -2.7058  -2.7012  -2.6974  -2.6927  -2.6865  -2.6841
    -2.6742  -2.6735  -2.6692  -2.6646  -2.6602  -2.6563  -2.6539  -2.6500
    -2.6448  -2.6386  -2.6360  -2.6336  -2.6330  -2.6295  -2.6226  -2.6163
    -2.6131  -2.6100  -2.6087  -2.6017  -2.5966  -2.5915  -2.5854  -2.5813
    -2.5741  -2.5662  -2.5597  -2.5573  -2.5490  -2.5424  -2.5351  -2.5330
    -2.5263  -2.5209  -2.5174  -2.5154  -2.5138  -2.5089  -2.5046  -2.4950
    -2.4879  -2.4840  -2.4729  -2.4689  -2.4634  -2.4562  -2.4528  -2.4457
    -2.4422  -2.4378  -2.4323  -2.4246  -2.4096  -2.3997  -2.3986  -2.3912
    -2.3877  -2.3717  -2.3678  -2.3582  -2.3558  -2.3523  -2.3420  -2.3348
    -2.3325  -2.3189  -2.3097  -2.3057  -2.3036  -2.2949  -2.2904  -2.2851
    -2.2820  -2.2777  -2.2722  -2.2659  -2.2580  -2.2550  -2.2537  -2.2492
    -2.2472  -2.2358  -2.2351  -2.2270  -2.2244  -2.2172  -2.2147  -2.2055
    -2.2038  -2.1941  -2.1913  -2.1879  -2.1771  -2.1738  -2.1646  -2.1602
    -2.1493  -2.1463  -2.1457  -2.1371  -2.1309  -2.1270  -2.1213  -2.1061
    -2.0992  -2.0915  -2.0879  -2.0803  -2.0745  -2.0631  -2.0478  -2.0454
    -2.0425  -2.0353  -2.0298  -2.0249  -2.0174  -2.0094  -2.0044  -1.9948
    -1.9818  -1.9797  -1.9760  -1.9724  -1.9666  -1.9557  -1.9512  -1.9461
    -1.9266  -1.9180  -1.9139  -1.9119  -1.9106  -1.9068  -1.8956  -1.8918
[...]
    -0.2850  -0.2701  -0.2507  -0.2317  -0.1620  -0.1392  -0.1291  -0.1172
    -0.0911  -0.0694  -0.0515  -0.0010   0.0245   0.0326   0.0635   0.0804
     0.0984   0.1563   0.1920   0.2097   0.2539   0.2645   0.2839   0.3365
     0.3426   0.3501   0.3730   0.4275   0.4504   0.4676   0.6457   0.6578
     0.7086   1.3153   1.7216   2.0521   2.1448   2.4852   2.6869   2.7032
     2.8705   2.8942   2.9180   2.9962   3.0015   3.0424   3.1335   3.2576
     3.2769   3.2899   3.3861   3.5024   3.5169   3.5668   3.6539   3.7199
     3.7352   3.7485   3.7808   3.8266   3.8654   3.8786   3.9721   4.0093
     4.0510   4.0851   4.1522   4.1888   4.2046   4.2699   4.3026   4.3740
     4.4232   4.4961   4.5440   4.5541   4.5811   4.6091   4.6789   4.7230
     4.8262   4.8501   4.8871   4.9176   4.9685   5.0321   5.0599   5.0764
     5.1162   5.1359   5.1587   5.1841   5.2673   5.3016   5.3137   5.3556
     5.3794   5.4033   5.4329   5.4742   5.4881   5.4955   5.5588   5.5848
     5.6005   5.6192   5.6291   5.6321   5.6368   5.7182   5.7208   5.7860
     5.8014

     the Fermi energy is    -0.2602 ev

!    total energy              =   -9886.80662153 Ry
     estimated scf accuracy    <       0.00000082 Ry
     smearing contrib. (-TS)   =      -0.05682655 Ry
     internal energy E=F+TS    =   -9886.74979498 Ry

     The total energy is F=E-TS. E is the sum of the following terms:
     one-electron contribution = -117389.26798326 Ry
     hartree contribution      =   59600.39647556 Ry
     xc contribution           =   -3197.19954702 Ry
     ewald contribution        =   51099.32125974 Ry

[...]

     convergence has been achieved in  22 iterations

[...]

     Forces acting on atoms (cartesian axes, Ry/au):

     atom    1 type  1   force =    -0.00006198   -0.00008552   -0.00278088
     atom    2 type  1   force =     0.00005063    0.00271749    0.00237973
     atom    3 type  2   force =     0.00215308   -0.00027109    0.00023058
     atom    4 type  2   force =     0.00170311    0.00031159   -0.00114152
     atom    5 type  2   force =    -0.00190400    0.00015506   -0.00017239
     atom    6 type  2   force =     0.00442183   -0.00478827    0.00124986
     atom    7 type  1   force =    -0.00043290    0.00342310   -0.00017406
     atom    8 type  1   force =    -0.00375541   -0.00193914   -0.00023227
     atom    9 type  1   force =     0.00044826    0.00073970    0.00056297
     atom   10 type  1   force =    -0.00056625    0.00152267   -0.00315011
     atom   11 type  2   force =    -0.00146743   -0.00196526    0.00175050
     atom   12 type  2   force =     0.00114120   -0.00007815   -0.00097986
     atom   13 type  2   force =    -0.00180362   -0.00034415   -0.00015709
     atom   14 type  2   force =    -0.00068713    0.00138536   -0.00090642
     atom   15 type  1   force =     0.00317183   -0.00147900    0.00048565
     atom   16 type  1   force =    -0.00112796   -0.00136029   -0.00121486
     atom   17 type  1   force =    -0.00219361    0.00254440   -0.00111014
     atom   18 type  1   force =     0.00394743   -0.00182739    0.00466908
     atom   19 type  2   force =    -0.00119138    0.00086288   -0.00151256
     atom   20 type  2   force =     0.00519064   -0.00055334    0.00277337
     atom   21 type  2   force =     0.00454089   -0.00203337    0.00207048
     atom   22 type  2   force =     0.00168471    0.00139562    0.00425740
     atom   23 type  1   force =    -0.00462383    0.00083377    0.03062425
     atom   24 type  1   force =    -0.00576079    0.00121080    0.03273415
     atom   25 type  1   force =    -0.00855953    0.00501518   -0.01587732
     atom   26 type  1   force =    -0.00831315    0.00407466   -0.01817711
     atom   27 type  2   force =    -0.03137733    0.01667572   -0.01922555
     atom   28 type  2   force =     0.03563716   -0.01400043   -0.01822971
     atom   29 type  2   force =     0.03550288   -0.01389999   -0.01800980
     atom   30 type  2   force =    -0.03037495    0.01619917   -0.01971356
     atom   31 type  1   force =     0.00714485   -0.00791570    0.02128628
     atom   32 type  1   force =     0.00744383   -0.00799234    0.02214460
     atom   33 type  1   force =     0.00398760   -0.00112217   -0.00064640
     atom   34 type  1   force =     0.00261502   -0.00280490    0.00041387
     atom   35 type  2   force =    -0.00145883   -0.00089697    0.00208207
     atom   36 type  2   force =     0.00194560    0.00083447   -0.00274818
     atom   37 type  2   force =    -0.00082277   -0.00183689   -0.00306192
     atom   38 type  2   force =     0.00228456    0.00170273    0.00286828
     atom   39 type  1   force =     0.00057252    0.00048848    0.00121786
     atom   40 type  1   force =    -0.00491316    0.00294083   -0.00239025
     atom   41 type  1   force =    -0.00067643    0.00112932   -0.00003570
     atom   42 type  1   force =    -0.00141336    0.00074015   -0.00058391
     atom   43 type  2   force =    -0.00111440   -0.00150992    0.00010798
     atom   44 type  2   force =    -0.00031755   -0.00055527   -0.00046782
     atom   45 type  2   force =    -0.00021816    0.00093869    0.00113676
     atom   46 type  2   force =     0.00107481    0.00066733    0.00053600
     atom   47 type  1   force =    -0.00184119    0.00121318   -0.00068731
     atom   48 type  1   force =     0.00130274    0.00087928    0.00072700
     atom   49 type  1   force =    -0.00148475    0.00360690   -0.00274542
     atom   50 type  1   force =    -0.00186130    0.00077449   -0.00073374
     atom   51 type  2   force =    -0.00331242   -0.00137506    0.00137915
     atom   52 type  2   force =     0.00558486   -0.00264288    0.00163298
     atom   53 type  2   force =     0.00360375   -0.00273709    0.00187764
     atom   54 type  2   force =    -0.00126755    0.00088967    0.00142731
     atom   55 type  1   force =    -0.00617279    0.00148639    0.03091170
     atom   56 type  1   force =    -0.00689954    0.00207426    0.03225935
     atom   57 type  1   force =    -0.00833214    0.00527947   -0.01572243
     atom   58 type  1   force =    -0.00903567    0.00523093   -0.01636163
     atom   59 type  2   force =    -0.03057161    0.01647588   -0.01875305
     atom   60 type  2   force =     0.03476547   -0.01380657   -0.01846211
[...]
     atom  120 type  1   force =    -0.00491798    0.00125579    0.03186333
     atom  121 type  1   force =    -0.00879339    0.00468027   -0.01747929
     atom  122 type  1   force =    -0.00917713    0.00462919   -0.01716080
     atom  123 type  2   force =    -0.03042980    0.01598961   -0.01928470
     atom  124 type  2   force =     0.03534303   -0.01410287   -0.01807963
     atom  125 type  2   force =     0.03458173   -0.01431267   -0.01891421
     atom  126 type  2   force =    -0.03067168    0.01609682   -0.02010726
     atom  127 type  1   force =     0.00703042   -0.00784998    0.02186736
     atom  128 type  1   force =     0.00747089   -0.00808748    0.02242325
     atom  129 type  3   force =    -0.00107630   -0.00234206    0.00268228
     atom  130 type  4   force =     0.00041195    0.00469725   -0.00484034
     atom  131 type  4   force =     0.00314188   -0.00285995   -0.00367711
     atom  132 type  3   force =    -0.00026065    0.00219549   -0.00208541
     atom  133 type  1   force =    -0.00794597   -0.00282099    0.00622059
     atom  134 type  4   force =     0.00305228   -0.00362855   -0.00335015

     Total force =     0.033044     Total SCF correction =     0.002487
     Energy error            =      1.5E-03
     Gradient error          =      7.9E-03

     number of scf cycles    =  43
     number of bfgs steps    =  42

     energy   old            =   -9886.8051270690 Ry
     energy   new            =   -9886.8066215265 Ry

     CASE: energy  _new < energy  _old

     new trust radius        =       0.0735978535 bohr
     new conv_thr            =       0.0000010000 Ry

ATOMIC_POSITIONS (angstrom)
O             8.5234529052        3.4869740287       18.6910076923
O            -3.5304706074        6.1530933803       18.6493391373
Cu           -0.8749030105        1.5295673622       18.1103237681
Cu            2.3520872611        1.5943306188       18.2008766073
Cu           -3.0098401382        4.3677328861       18.1910974515
Cu            0.3594191188        4.3562864957       18.2244995427
O            10.6322437737        2.4805203587       17.6553066830
O            -1.3184595927        5.2560525335       17.7100468677
O            -0.6170986870        1.4734966542       16.0681852934
O             0.5593902935        4.1813973209       16.2552491469
Cu           10.8790095967        2.3775446321       15.6686602903
Cu            1.0106123868        2.3735185337       15.6130273653
Cu            8.7807766661        5.0686484196       15.5514699787
Cu           -1.0567916429        5.0867483384       15.7082088631
O             9.2398979361        3.2356897436       15.0536107334
O            -2.6827038102        5.9422299210       15.0609326618
O            11.1486840000        2.2334720000       13.7143440000    0   0   0
O            -0.8023490000        4.9239020000       13.7143470000    0   0   0
Cu            9.5017320000        3.1128110000       13.1161730000    0   0   0
Cu           -0.3485900000        3.1127790000       13.1161390000    0   0   0
Cu            7.4009800000        5.8033130000       13.1161180000    0   0   0
Cu           -2.4493430000        5.8032830000       13.1160830000    0   0   0
O             0.1051970000        1.3017660000       12.5179100000    0   0   0
O             1.2878790000        3.9921910000       12.5179070000    0   0   0
O             9.8201840000        2.9631140000       11.1964400000    0   0   0
O            -2.1308530000        5.6535400000       11.1964370000    0   0   0
Cu            0.4236890000        1.1520210000       10.5982660000    0   0   0
Cu            3.7070840000        1.1519910000       10.5982320000    0   0   0
Cu           -1.6770660000        3.8425240000       10.5982090000    0   0   0
Cu            1.6063330000        3.8424940000       10.5981740000    0   0   0
O            -1.2233060000        2.0314030000       10.0000000000    0   0   0
O            -0.0406210000        4.7218340000       10.0000030000    0   0   0
O             4.2574658383        8.8221442591       18.6845745970
O             0.6986164814        0.7553390300       18.7103395168
Cu           -5.0733412050        7.0114519355       18.1195454263
Cu           -1.8690815740        7.0380982013       18.3782086935
Cu           -7.2617188378        9.7120915276       18.2106590398
Cu           -3.9144140037        9.6154494519       18.1364124056
O             6.4007471267        7.8650687013       17.6495608387
O            -5.5525636211       10.5009593486       17.6651672930
O            -4.8070921953        6.8752580604       16.0718946878
O            -3.6311693394        9.5600020039       16.0948574851
Cu            6.6625041989        7.7478010949       15.6675010285
Cu           -3.1714238853        7.7553975016       15.5765358575
Cu            4.5513617302       10.4242166573       15.5510884670
Cu           -5.2930351316       10.4206202667       15.6706474783
O             5.0063362187        8.5809108965       15.0559864749
O             1.4860675334        0.5435582438       15.0547478654
O             6.9471920000        7.6143280000       13.7143440000    0   0   0
O            -5.0038400000       10.3047600000       13.7143470000    0   0   0
Cu            5.3002390000        8.4936690000       13.1161730000    0   0   0
Cu           -4.5500820000        8.4936370000       13.1161390000    0   0   0
Cu           11.6024710000        0.4224550000       13.1161180000    0   0   0
Cu            1.7521510000        0.4224250000       13.1160830000    0   0   0
O            -4.0962950000        6.6826220000       12.5179100000    0   0   0
O            -2.9136130000        9.3730490000       12.5179070000    0   0   0
O             5.6186910000        8.3439720000       11.1964400000    0   0   0
O             2.0706380000        0.2726820000       11.1964370000    0   0   0
Cu           -3.7778050000        6.5328800000       10.5982660000    0   0   0
Cu           -0.4944080000        6.5328490000       10.5982320000    0   0   0
[...]
O             3.6532460000        9.3730490000       12.5179070000    0   0   0
O            -0.9481660000        8.3439720000       11.1964400000    0   0   0
O             8.6374990000        0.2726820000       11.1964370000    0   0   0
Cu            2.7890550000        6.5328800000       10.5982660000    0   0   0
Cu            6.0724510000        6.5328490000       10.5982320000    0   0   0
Cu            0.6883010000        9.2233820000       10.5982090000    0   0   0
Cu            3.9717000000        9.2233520000       10.5981740000    0   0   0
O             1.1420610000        7.4122610000       10.0000000000    0   0   0
O             2.3247460000       10.1026910000       10.0000030000    0   0   0
N             1.8664000095        8.7845887973       21.4250568515
H             0.9388305498        3.9134722491       20.6356007399
H            -0.1841652023        4.9843059611       21.0176088651
N             2.4938303787        8.4899945372       22.2949949505
O             0.1437645881        4.3889109753       20.3193461094
H             0.0405536261        7.9665633930       19.6466260771

     Writing output data file ./pwscf.save/
     NEW-OLD atomic charge density approx. for the potential

     negative rho (up, down):  5.229E-03 5.229E-03
     Generating pointlists ...

     Self-consistent Calculation

[...]

     iteration #  7     ecut=    25.00 Ry     beta= 0.10
     Davidson diagonalization with overlap
     ethr =  1.91E-07,  avg # of iterations =  2.0

     negative rho (up, down):  5.224E-03 5.225E-03

     total energy              =   -9886.80782808 Ry
     estimated scf accuracy    <       0.00080741 Ry

     total magnetization       =     0.00 Bohr mag/cell
     absolute magnetization    =     0.02 Bohr mag/cell

     iteration #  8     ecut=    25.00 Ry     beta= 0.10
     Davidson diagonalization with overlap

     max_seconds     =  172800.00
     Calculation stopped in k-point loop, point #     2
     Calculation stopped in scf loop at iteration #     7

     Writing output data file ./pwscf.save/

     General routines

     Parallel routines

   This run was terminated on:   5: 6: 5  11Sep2025

   JOB DONE.